evm/ejemplos_dzn/EthPriceMintModule_run_code_of_0_block_107_0_input.dzn
TERM = { '.', s0, s1, s10, s2, s9, s13, s14};
null = '.';
s = 9;
n = 9;
min = 9;
N0 = 0;
ZEROARYOP = {};
zeroout = [];
zerogas = [];
zerosz =  [];
zerolb =  [];
zeroub =  [];
N1 = 1;
UNARYOP = { MLOAD_0 };
unin = [ s14 ];
unout = [ s9 ];
ungas = [ 3 ];
unsz = [ 1 ];
unlb = [ 1 ];
unub = [ 9 ];
N2 = 1;
BINARYOP = { SUB_0 };
binin1 = [s0 ];
binin2 = [s9 ];
binout = [s10 ];
bincomm = [false ];
bingas = [3 ];
binsz = [1 ];
binlb = [ 1 ];
binub = [ 9 ];
NA = 0;
ASSOCIATIVEADDOP = {};
naddin =  [];
addin =  [||];
addout = [];
addcomm = [];
addgas = [];
addsz =  [];
addlb =  [];
addub =  [];
NPUSH = 2;
PUSHOP = { PUSH_0, PUSH_1 };
pushout = [ s13, s14 ];
pushgas = [ 3, 3 ];
pushsz = [ 2, 2 ];
pushlb = [ 1, 1 ];
pushub = [ 9, 9 ];
NSTORE = 0;
STOROP = {};
storin1 =  [];
storin2 =  [];
storlb =  [];
storub =  [];
storgas = [];
storsz = [];
DUP_ENUM = { DUP1, DUP2, DUP3, DUP4, DUP5, DUP6, DUP7, DUP8};
SWAP_ENUM = { SWAP1, SWAP2, SWAP3, SWAP4, SWAP5, SWAP6, SWAP7, SWAP8};
startstack = [ s0, s1, s2, null, null, null, null, null, null ];
endstack = [ s2, s1, s9, s10, s9, s13, s0, s1, s2 ];
m_dep_n = 0;
memory_dependences = [| |];
s_dep_n = 0;
store_dependences = [| |];
lib = false;
nlib = 0;
lib_elem = [| |];
lib_dis = [];
