evm/ejemplos_results/EthPriceMintModule_run_code_of_0_block_107_0_input.txt
=====ERROR=====
% time elapsed: 1.03 s
